SYSTEM = ZrO2

    GGA    = PS 
    EDIFF  = 1.0E-8
    EDIFFG = -1.0E-3
    PREC   = Accurate
    ENCUT  = 900 eV

    IBRION = -1
    IALGO  = 38
    LREAL  = .FALSE.
    LWAVE  = .FALSE.
    LCHARG = .FALSE.

    NSW    = 0
    NELM   = 200
    NELMIN = 5

    ISMEAR  = 0
    SIGMA   = 0.05
