POSCAR file written by OVITO Pro 3.7.11 
   1.00000000000000     
     5.5575350259684759   -0.0000000134668719    0.0000000228627846
    -0.0000000081527954    3.3209371191966177    0.0000000154258126
     0.0000000266133059    0.0000000302284161    6.4779841765408994
   O    Zr
     8     4
Direct
  0.3598613972891513  0.2499999960050658  0.4255209506884654
  0.1401382728834975  0.7499999995634354  0.9255209570309759
  0.6401383116216621  0.7499999975918854  0.5744791831897089
  0.8598614381315102  0.2500000161738498  0.0744791630282009
  0.9757103911348679  0.2499999810762574  0.6611951337135196
  0.5242892930281968  0.7500000135092506  0.1611951411918255
  0.0242893338013275  0.7499999883567838  0.3388050011493675
  0.4757104353105532  0.2500000126543469  0.8388049960779540
  0.2466764305266551  0.2500000135302045  0.1111890688845847
  0.2533233197360758  0.7499999780997371  0.6111890860895599
  0.7533232975260304  0.7499999880001837  0.8888110631239030
  0.7466764154104695  0.2500000154389852  0.3888110538319438
 
  0.00000000E+00  0.00000000E+00  0.00000000E+00
  0.00000000E+00  0.00000000E+00  0.00000000E+00
  0.00000000E+00  0.00000000E+00  0.00000000E+00
  0.00000000E+00  0.00000000E+00  0.00000000E+00
  0.00000000E+00  0.00000000E+00  0.00000000E+00
  0.00000000E+00  0.00000000E+00  0.00000000E+00
  0.00000000E+00  0.00000000E+00  0.00000000E+00
  0.00000000E+00  0.00000000E+00  0.00000000E+00
  0.00000000E+00  0.00000000E+00  0.00000000E+00
  0.00000000E+00  0.00000000E+00  0.00000000E+00
  0.00000000E+00  0.00000000E+00  0.00000000E+00
  0.00000000E+00  0.00000000E+00  0.00000000E+00
