Pca21                                   
   1.00000000000000     
     5.0745264667069812    0.0000001298354442   -0.0000002943312106
     0.0000001325589924    5.0550926298312620    0.0000000511140506
    -0.0000003069021864    0.0000000535112768    5.2596638046798416
   O    Zr
     8     4
Direct
  0.2518129702761491  0.2883129658381786  0.2676117054310820
  0.3604488977976542  0.6797691281804857  0.6329056068340559
  0.2518129836297778  0.2116869888710044  0.7676117068256751
  0.3604489311052763  0.8202308330716428  0.1329055972236242
  0.8604489092946549  0.8202308100313074  0.3670930607702986
  0.8604489321100044  0.6797690810154731  0.8670930845437390
  0.7518129825308448  0.2116869639462010  0.7323869887502195
  0.7518129726080875  0.2883129397750488  0.2323869951356856
  0.9990871829539476  0.0172595245465930  0.0313386773131600
  0.4990871853630122  0.0172595286927855  0.4686600140155656
  0.4990871851383329  0.4827404146405588  0.9686600170109815
  0.9990871708742611  0.4827403856187190  0.5313386740909117
 
  0.00000000E+00  0.00000000E+00  0.00000000E+00
  0.00000000E+00  0.00000000E+00  0.00000000E+00
  0.00000000E+00  0.00000000E+00  0.00000000E+00
  0.00000000E+00  0.00000000E+00  0.00000000E+00
  0.00000000E+00  0.00000000E+00  0.00000000E+00
  0.00000000E+00  0.00000000E+00  0.00000000E+00
  0.00000000E+00  0.00000000E+00  0.00000000E+00
  0.00000000E+00  0.00000000E+00  0.00000000E+00
  0.00000000E+00  0.00000000E+00  0.00000000E+00
  0.00000000E+00  0.00000000E+00  0.00000000E+00
  0.00000000E+00  0.00000000E+00  0.00000000E+00
  0.00000000E+00  0.00000000E+00  0.00000000E+00
