Zr4 O8                                  
   1.00000000000000     
     4.0004083748387025   -0.0000000303356134    0.0000000092568489
    -0.0000000299630350    4.0003954664480501   -0.0000115405303432
     0.0000000257714527   -0.0000307573260234   10.6710329683090528
   O    Zr
     8     4
Direct
  0.0000000193914465  0.0000036909627626  0.7987584008187703
  0.5000000227979093  0.5000012702438231  0.7012416196679737
  0.5000000142343562  0.9999963129019876  0.9512415737077392
  0.4999999820139631  0.9999987452069157  0.5487584193504974
  0.4999999840722542  0.5000036840037021  0.2987584268961166
  0.9999999875469321  0.0000012566487026  0.2012415807954890
  0.9999999819147842  0.4999963161876347  0.4512415975654872
  0.0000000098027226  0.4999987304765003  0.0487583801798848
  0.0000000170058762  0.9999977943230471 -0.0000001266518182
  0.5000000179345929  0.0000022142248148  0.7500000824464336
  0.4999999832213052  0.4999977972782715  0.4999999846499930
  0.9999999800638500  0.5000021875418523  0.2500000605734407
 
  0.00000000E+00  0.00000000E+00  0.00000000E+00
  0.00000000E+00  0.00000000E+00  0.00000000E+00
  0.00000000E+00  0.00000000E+00  0.00000000E+00
  0.00000000E+00  0.00000000E+00  0.00000000E+00
  0.00000000E+00  0.00000000E+00  0.00000000E+00
  0.00000000E+00  0.00000000E+00  0.00000000E+00
  0.00000000E+00  0.00000000E+00  0.00000000E+00
  0.00000000E+00  0.00000000E+00  0.00000000E+00
  0.00000000E+00  0.00000000E+00  0.00000000E+00
  0.00000000E+00  0.00000000E+00  0.00000000E+00
  0.00000000E+00  0.00000000E+00  0.00000000E+00
  0.00000000E+00  0.00000000E+00  0.00000000E+00
