POSCAR file written by OVITO Basic 3.7.9
   1.00000000000000     
     5.0736336531302522   -0.0000059623499118   -0.0000000160324835
    -0.0000059620656824    5.0736337139364664    0.0000002088453037
    -0.0000000163827140    0.0000002131058290    5.1776290822295650
   O    Zr
     8     4
Direct
  0.2500000100499171  0.2499999951789892  0.2977401734656789
  0.7500000065721368  0.2500000047621650  0.2022598551978821
  0.7499999946146458  0.7499999980424558  0.2977401977734094
  0.2499999906876839  0.7500000014498469  0.2022597544732609
  0.2500000108206682  0.7499999867617505  0.7022596014187605
  0.7500000029386164  0.7500000122611530  0.7977403706088422
  0.7499999942690518  0.2500000154556878  0.7022596926119733
  0.2499999941685581  0.2499999836482192  0.7977403551461290
  0.0000003191085179  0.9999999463441658  0.9999994125664446
  0.0000003033120499  0.5000000539175062  0.5000005868596716
  0.4999996961143650  0.9999999697030256  0.5000006021839147
  0.4999996773437750  0.5000000324750421  0.9999993976940257
 
  0.00000000E+00  0.00000000E+00  0.00000000E+00
  0.00000000E+00  0.00000000E+00  0.00000000E+00
  0.00000000E+00  0.00000000E+00  0.00000000E+00
  0.00000000E+00  0.00000000E+00  0.00000000E+00
  0.00000000E+00  0.00000000E+00  0.00000000E+00
  0.00000000E+00  0.00000000E+00  0.00000000E+00
  0.00000000E+00  0.00000000E+00  0.00000000E+00
  0.00000000E+00  0.00000000E+00  0.00000000E+00
  0.00000000E+00  0.00000000E+00  0.00000000E+00
  0.00000000E+00  0.00000000E+00  0.00000000E+00
  0.00000000E+00  0.00000000E+00  0.00000000E+00
  0.00000000E+00  0.00000000E+00  0.00000000E+00
