Zr  O                                   
   1.00000000000000     
    10.0546657820886072   -0.0000020936382343   -0.0001221986125157
    -0.0000010797009273    5.2521447628724953   -0.0000014486385638
    -0.0000616893354163   -0.0000013987453064    5.0757670458821824
   O    Zr
    16     8
Direct
  0.0927736642379837  0.7041535710463378  0.2447883814826630
  0.0927746662375371  0.7265290022977916  0.7447881505305917
  0.1378656673294610  0.2041548530079801  0.7494300783385678
  0.1378650955917933  0.2265287869800524  0.2494304694168957
  0.3252113876834399  0.5904765750131266  0.6195349387573221
  0.3252118704107180  0.8402008219048435  0.1195357528385084
  0.4054281292882056  0.0904777577314538  0.6195327025395956
  0.4054271125968066  0.3401986610297671  0.1195338238754979
  0.5927750438313699  0.7041553010347614  0.7494292622034665
  0.5927747784909456  0.7265274420545915  0.2494293701307474
  0.6378649915478257  0.2041548282032394  0.2447903403195806
  0.6378647158859320  0.2265273350539558  0.7447901659426923
  0.8252114617163874  0.5904770905341774  0.3746867274636555
  0.8252127797518967  0.8401980735376042  0.8746857207231158
  0.9054289343646891  0.0904746739436133  0.3746847249849052
  0.9054275699151026  0.3401993581991345  0.8746833236342421
  0.9999999505741920  0.0002063929161402  0.9997940364280814
  0.9999994779414956  0.4304747365570553  0.4997946158933370
  0.2306398745395465  0.5002066584223950  0.9944244440215845
  0.2306402121492421  0.9304752735737748  0.4944239074059936
  0.4999985492100300  0.0002049437655595  0.9944218201554323
  0.4999984465247403  0.4304766557585416  0.4944217020064258
  0.7306412370219914  0.5002048106440006  0.9997971456445303
  0.7306414831586757  0.9304763967901172  0.4997973952625991
