POSCAR file written by OVITO Pro 3.7.11 
   1.00000000000000     
     7.3777948135524047   -0.0000000002293912   -0.0404108856544159
    -0.0000000000683795    3.4685555425706975    0.0000000007733451
    -1.9387963734008573    0.0000000011686430    5.4853357972930432
   O    Zr
     8     4
Direct
  0.1969046973691277  0.0000000690940780  0.8321267173285989
  0.4246113622168650  0.0000000690370570  0.5760022037961150
  0.4953871986424758  0.5000000690498609  0.0048481308927961
  0.2676837911212502  0.5000000691373714  0.2609776966697979
  0.6969046973766808  0.0000000690511825  0.3321267172385731
  0.9246113621088909  0.0000000687952166  0.0760022035793995
  0.7676837910953935  0.5000000688967319  0.7609776964777097
  0.9953871986761200  0.5000000689965844  0.5048481307359509
  0.3972363494412789  0.0000000691512341  0.2000159322548427
  0.7950563850423791  0.5000000687250221  0.1369611115987297
  0.8972363494332569  0.0000000689197179  0.7000159320886041
  0.2950563850762791  0.5000000689822386  0.6369611117388700
 
  0.00000000E+00  0.00000000E+00  0.00000000E+00
  0.00000000E+00  0.00000000E+00  0.00000000E+00
  0.00000000E+00  0.00000000E+00  0.00000000E+00
  0.00000000E+00  0.00000000E+00  0.00000000E+00
  0.00000000E+00  0.00000000E+00  0.00000000E+00
  0.00000000E+00  0.00000000E+00  0.00000000E+00
  0.00000000E+00  0.00000000E+00  0.00000000E+00
  0.00000000E+00  0.00000000E+00  0.00000000E+00
  0.00000000E+00  0.00000000E+00  0.00000000E+00
  0.00000000E+00  0.00000000E+00  0.00000000E+00
  0.00000000E+00  0.00000000E+00  0.00000000E+00
  0.00000000E+00  0.00000000E+00  0.00000000E+00
