POSCAR file written by OVITO Basic 3.7.9
   1.00000000000000     
     5.1333020035509964    0.0000000010550062   -0.0158488629020397
     0.0000000019312404    5.2145565436492527   -0.0000000040033134
    -0.8683510195585114   -0.0000000048124652    5.2293373886710706
   O    Zr
     8     4
Direct
  0.0699502577282587  0.3362105581632022  0.3415955670982953
  0.9300497422131784  0.8362105512440792  0.1584044217778313
  0.9300497408475294  0.6637894442374375  0.6584044308068897
  0.0699502563626311  0.1637894463513945  0.8415955761186140
  0.4486919142037920  0.7576722277547887  0.4797499298362098
  0.5513080839694311  0.2576722299802228  0.0202500785140387
  0.5513080843020859  0.2423277695391377  0.5202500719493131
  0.4486919145387134  0.7423277727173883  0.9797499232754134
  0.2771801834780590  0.0430449280178848  0.2093944010532311
  0.7228198197903595  0.5430449287827770  0.2906055992458576
  0.7228198194372197  0.9569550721304694  0.7906055992663639
  0.2771801831287348  0.4569550710812251  0.7093944010579278
 
  0.00000000E+00  0.00000000E+00  0.00000000E+00
  0.00000000E+00  0.00000000E+00  0.00000000E+00
  0.00000000E+00  0.00000000E+00  0.00000000E+00
  0.00000000E+00  0.00000000E+00  0.00000000E+00
  0.00000000E+00  0.00000000E+00  0.00000000E+00
  0.00000000E+00  0.00000000E+00  0.00000000E+00
  0.00000000E+00  0.00000000E+00  0.00000000E+00
  0.00000000E+00  0.00000000E+00  0.00000000E+00
  0.00000000E+00  0.00000000E+00  0.00000000E+00
  0.00000000E+00  0.00000000E+00  0.00000000E+00
  0.00000000E+00  0.00000000E+00  0.00000000E+00
  0.00000000E+00  0.00000000E+00  0.00000000E+00
